40
397
20
0 1
0 3
0 7
0 9
0 11
0 13
0 15
0 16
0 17
0 18
0 19
0 22
0 26
0 28
0 30
0 33
0 34
0 36
0 38
0 39
1 3
1 4
1 5
1 6
1 9
1 10
1 12
1 15
1 16
1 18
1 20
1 22
1 23
1 25
1 26
1 27
1 28
1 33
1 38
1 39
2 4
2 6
2 7
2 8
2 10
2 11
2 12
2 15
2 17
2 18
2 21
2 22
2 23
2 24
2 25
2 31
2 33
2 34
2 36
2 38
3 4
3 6
3 7
3 8
3 12
3 13
3 14
3 15
3 16
3 17
3 19
3 21
3 27
3 28
3 29
3 32
3 35
3 36
3 38
3 39
4 6
4 7
4 8
4 9
4 10
4 11
4 12
4 13
4 14
4 15
4 16
4 19
4 20
4 21
4 24
4 27
4 29
4 32
4 35
4 37
5 8
5 10
5 15
5 16
5 17
5 20
5 25
5 29
5 34
5 35
6 10
6 11
6 15
6 17
6 18
6 20
6 21
6 22
6 27
6 29
6 32
6 33
6 34
6 35
6 37
6 39
7 10
7 12
7 14
7 18
7 21
7 24
7 27
7 34
7 35
7 38
7 39
8 13
8 15
8 17
8 18
8 19
8 20
8 22
8 24
8 25
8 27
8 31
8 32
8 34
8 35
8 39
9 11
9 12
9 15
9 16
9 18
9 19
9 20
9 21
9 23
9 24
9 26
9 31
9 32
9 34
9 35
9 37
10 13
10 15
10 16
10 19
10 20
10 23
10 25
10 26
10 28
10 32
10 37
10 39
11 12
11 13
11 14
11 15
11 16
11 18
11 19
11 20
11 21
11 23
11 25
11 26
11 28
11 29
11 31
11 33
11 34
11 35
11 37
11 38
11 39
12 14
12 16
12 21
12 22
12 24
12 25
12 27
12 30
12 33
12 39
13 14
13 15
13 16
13 17
13 18
13 19
13 21
13 22
13 23
13 24
13 25
13 27
13 28
13 29
13 30
13 32
13 33
13 35
13 38
13 39
14 15
14 16
14 17
14 19
14 20
14 21
14 22
14 23
14 24
14 28
14 30
14 33
14 34
14 35
14 37
14 38
14 39
15 16
15 17
15 18
15 20
15 21
15 22
15 23
15 24
15 26
15 27
15 31
15 33
15 34
15 38
16 18
16 21
16 22
16 23
16 24
16 25
16 26
16 28
16 29
16 32
16 34
16 37
16 39
17 20
17 21
17 23
17 24
17 27
17 29
17 31
17 32
17 33
17 35
17 36
17 37
17 38
18 20
18 21
18 22
18 23
18 27
18 29
18 32
18 33
19 22
19 25
19 28
19 29
19 30
19 31
19 32
19 33
19 34
19 35
19 36
20 21
20 22
20 23
20 30
20 32
20 33
20 38
21 22
21 23
21 25
21 26
21 28
21 30
21 33
21 34
21 35
21 39
22 24
22 27
22 32
22 38
23 28
23 31
23 32
23 33
23 35
23 39
24 25
24 26
24 28
24 30
24 34
24 35
24 36
24 38
24 39
25 26
25 27
25 28
25 31
25 32
25 33
25 36
25 37
25 39
26 29
26 30
26 31
26 32
26 34
26 36
26 37
26 38
27 28
27 30
27 31
27 33
27 37
27 39
28 34
28 39
29 34
29 36
29 37
29 39
30 31
30 32
30 33
30 37
31 33
31 34
31 36
31 38
31 39
32 33
32 35
32 36
32 38
33 34
33 35
33 36
33 37
33 39
34 37
34 38
34 39
35 37
35 39
36 37
36 39
6 13
10 11
32 36
30 37
21 22
23 39
8 26
2 20
1 28
7 15
19 38
16 35
12 34
0 27
4 31
14 24
18 29
5 9
3 25
17 33
